NAME: rand_1/map5_180
TYPE: TSP
COMMENT: autogenerated using a wonderful map creator
DIMENSION: 210
EDGE_WEIGHT_TYPE: EUC_2D
NODE_COORD_SECTION
1 125.0 73.0
2 10.0 28.0
3 86.0 10.0
4 93.0 3.0
5 126.0 85.0
6 97.0 4.0
7 82.0 13.0
8 1.0 35.0
9 47.0 125.0
10 70.0 10.0
11 85.0 20.0
12 1.0 36.0
13 126.0 78.0
14 7.0 34.0
15 5.0 30.0
16 85.0 15.0
17 87.0 9.0
18 83.0 22.0
19 87.0 12.0
20 67.0 2.0
21 85.0 8.0
22 121.0 75.0
23 92.0 3.0
24 10.0 33.0
25 87.0 20.0
26 44.0 124.0
27 125.0 87.0
28 87.0 17.0
29 71.0 6.0
30 84.0 5.0
31 123.0 86.0
32 124.0 69.0
33 29.0 125.0
34 39.0 125.0
35 78.0 18.0
36 74.0 14.0
37 2.0 41.0
38 86.0 13.0
39 123.0 77.0
40 124.0 83.0
41 126.0 87.0
42 49.0 124.0
43 77.0 5.0
44 75.0 12.0
45 95.0 7.0
46 4.0 32.0
47 28.0 125.0
48 84.0 20.0
49 6.0 36.0
50 1.0 34.0
51 11.0 39.0
52 67.0 6.0
53 126.0 73.0
54 84.0 16.0
55 91.0 6.0
56 86.0 16.0
57 82.0 7.0
58 45.0 124.0
59 9.0 43.0
60 40.0 126.0
61 26.0 85.0
62 53.0 69.0
63 43.0 46.0
64 72.0 82.0
65 127.0 61.0
66 82.0 93.0
67 74.0 73.0
68 21.0 37.0
69 120.0 40.0
70 82.0 120.0
71 68.0 20.0
72 43.0 30.0
73 78.0 125.0
74 61.0 54.0
75 89.0 125.0
76 72.0 84.0
77 118.0 51.0
78 44.0 111.0
79 56.0 76.0
80 16.0 104.0
81 2.0 50.0
82 64.0 34.0
83 71.0 49.0
84 14.0 79.0
85 103.0 111.0
86 98.0 14.0
87 92.0 99.0
88 20.0 58.0
89 107.0 26.0
90 53.0 64.0
91 26.0 25.0
92 42.0 43.0
93 80.0 124.0
94 16.0 88.0
95 115.0 91.0
96 31.0 79.0
97 28.0 7.0
98 2.0 116.0
99 21.0 105.0
100 32.0 16.0
101 5.0 96.0
102 49.0 66.0
103 42.0 82.0
104 24.0 12.0
105 96.0 28.0
106 16.0 127.0
107 35.0 85.0
108 90.0 94.0
109 47.0 4.0
110 61.0 122.0
111 79.0 103.0
112 120.0 83.0
113 54.0 37.0
114 57.0 118.0
115 11.0 75.0
116 23.0 40.0
117 4.0 91.0
118 20.0 108.0
119 13.0 14.0
120 58.0 46.0
121 102.0 43.0
122 108.0 38.0
123 64.0 77.0
124 49.0 98.0
125 39.0 41.0
126 29.0 40.0
127 6.0 47.0
128 21.0 100.0
129 83.0 84.0
130 127.0 17.0
131 92.0 96.0
132 43.0 20.0
133 41.0 87.0
134 113.0 82.0
135 28.0 41.0
136 122.0 23.0
137 125.0 56.0
138 93.0 51.0
139 108.0 104.0
140 36.0 63.0
141 28.0 114.0
142 12.0 8.0
143 3.0 5.0
144 17.0 59.0
145 54.0 87.0
146 94.0 68.0
147 121.0 52.0
148 61.0 65.0
149 118.0 7.0
150 124.0 32.0
151 95.0 115.0
152 42.0 33.0
153 61.0 101.0
154 1.0 80.0
155 93.0 44.0
156 8.0 49.0
157 29.0 26.0
158 3.0 7.0
159 38.0 93.0
160 52.0 64.0
161 40.0 108.0
162 116.0 21.0
163 82.0 53.0
164 41.0 82.0
165 78.0 46.0
166 42.0 26.0
167 125.0 97.0
168 74.0 24.0
169 113.0 77.0
170 87.0 122.0
171 102.0 104.0
172 117.0 68.0
173 1.0 91.0
174 100.0 116.0
175 102.0 67.0
176 121.0 47.0
177 12.0 85.0
178 51.0 67.0
179 101.0 114.0
180 25.0 58.0
181 124.0 36.0
182 2.0 10.0
183 73.0 116.0
184 28.0 29.0
185 91.0 51.0
186 17.0 111.0
187 85.0 53.0
188 46.0 110.0
189 72.0 92.0
190 107.0 4.0
191 34.0 20.0
192 8.0 10.0
193 106.0 112.0
194 113.0 127.0
195 25.0 69.0
196 28.0 40.0
197 48.0 91.0
198 115.0 26.0
199 105.0 55.0
200 79.0 36.0
201 104.0 44.0
202 8.0 122.0
203 42.0 14.0
204 7.0 111.0
205 74.0 76.0
206 90.0 72.0
207 40.0 62.0
208 68.0 23.0
209 77.0 56.0
210 12.0 119.0
211 95.0 25.0
212 97.0 22.0
213 52.0 54.0
214 118.0 109.0
215 28.0 8.0
216 65.0 2.0
217 116.0 29.0
218 74.0 78.0
219 14.0 91.0
220 117.0 113.0
221 77.0 49.0
222 29.0 64.0
223 38.0 76.0
224 28.0 108.0
225 105.0 50.0
226 70.0 126.0
227 123.0 107.0
228 4.0 16.0
229 27.0 75.0
230 53.0 94.0
231 100.0 26.0
232 93.0 84.0
233 122.0 120.0
234 75.0 79.0
235 6.0 55.0
236 75.0 24.0
237 68.0 73.0
238 111.0 117.0
239 96.0 31.0
240 3.0 56.0
START_DEPOT_SECTION
1
2
3
4
5
6
7
8
9
10
11
12
13
14
15
16
17
18
19
20
21
22
23
24
25
26
27
28
29
30
-1
END_DEPOT_SECTION
31
32
33
34
35
36
37
38
39
40
41
42
43
44
45
46
47
48
49
50
51
52
53
54
55
56
57
58
59
60
-1
EOF
